18
12
2 12 8 1 13 5 10 0 11
12 6 5 8 3 10 0 4 15 14 17 2 11 16 13 7 9 1
13 7 16 12 11 0 10 1 17 5 4 3 9 8 15 2
5 9 0 4 16 1 3 10 15 11 17 2
3 0 13 6 4 14 10 16 11 9 1
9 7 2 15 8 10 5 4 12
13 5 11 1 9 17 16 12 4 6 15 2 0 8
13 6 10 16 5 14 3 12 9 17 8 11
8 16 4 0 6 2 3 10 5 12 17 1 13
4 17 2 7 12 5
17 14 6 7 16
10 17 16 6 8 15 1 13 4 7 12 0 5 11 2 3
